30 1 6
906 192 158 195 358 103 394 1000 304 854 792 830 118 122 535 598 801 715 409 408 718 401 580 641 925 634 621 826 627 891 
815 884 82 972 430 791 427 823 791 82 29 582 912 146 55 446 95 855 513 503 262 230 255 841 222 531 826 842 356 804 
84 171 39 517 494 469 308 272 643 98 354 671 31 617 168 437 62 263 291 926 117 552 507 372 744 729 902 922 570 258 
77 6 780 116 522 625 936 829 897 578 278 250 601 660 218 768 96 279 30 386 557 147 289 63 870 385 791 771 658 713 
380 86 718 159 553 239 784 488 420 32 418 697 281 18 357 850 785 804 480 167 542 36 665 182 99 534 918 241 304 575 
953 36 13 22 546 565 261 681 53 32 712 822 728 344 839 436 193 975 592 673 141 133 708 805 314 158 690 232 399 346 
1580 3510 3810 5220 7250 9260 870 3370 6070 4910 3680 6700 3120 4470 140 5020 8830 2060 4760 8260 8780 9690 9580 9380 7730 6230 950 8150 2060 4930 
80180
